Version identifier: 12.10.0.0 | 2019-11-26 | 843d4de
CPXPARAM_WorkMem                                 28672
Tried aggregator 2 times.
MIP Presolve modified 37 coefficients.
Aggregator did 30 substitutions.
Reduced MIP has 134 rows, 160 columns, and 620 nonzeros.
Reduced MIP has 160 binaries, 0 generals, 0 SOSs, and 0 indicators.
Presolve time = 0,00 sec. (0,83 ticks)
Found incumbent of value 120,000000 after 0,00 sec. (1,26 ticks)
Probing time = 0,00 sec. (0,23 ticks)
Tried aggregator 1 time.
Detecting symmetries...
MIP Presolve eliminated 24 rows and 0 columns.
MIP Presolve added 48 rows and 0 columns.
Reduced MIP has 158 rows, 160 columns, and 644 nonzeros.
Reduced MIP has 160 binaries, 0 generals, 0 SOSs, and 0 indicators.
Presolve time = 0,00 sec. (0,73 ticks)
Probing time = 0,00 sec. (0,22 ticks)
Clique table members: 430.
MIP emphasis: balance optimality and feasibility.
MIP search method: dynamic search.
Parallel mode: deterministic, using up to 16 threads.
Root relaxation solution time = 0,00 sec. (0,58 ticks)

        Nodes                                         Cuts/
   Node  Left     Objective  IInf  Best Integer    Best Bound    ItCnt     Gap

*     0+    0                          120,0000        0,0000           100,00%
*     0+    0                           48,0000        0,0000           100,00%
      0     0       30,3000    32       48,0000       30,3000       82   36,87%
*     0+    0                           46,0000       30,3000            34,13%
      0     0       30,8417    32       46,0000      Cuts: 92      104   32,95%
      0     0       31,2827    32       46,0000     Cuts: 125      127   31,99%
      0     0       31,6216    32       46,0000      Cuts: 59      145   31,26%
      0     0       32,0429    32       46,0000      Cuts: 60      188   30,34%
      0     0       32,1912    32       46,0000      Cuts: 57      220   30,02%
      0     0       32,3207    32       46,0000      Cuts: 54      241   29,74%
      0     0       32,3948    32       46,0000   ZeroHalf: 8      263   29,58%
      0     0       32,4444    32       46,0000      Cuts: 93      289   29,47%
      0     0       32,5948    32       46,0000      Cuts: 13      314   29,14%
      0     0       32,6485    32       46,0000   ZeroHalf: 4      333   29,03%
      0     0       32,6755    32       46,0000      Cuts: 66      362   28,97%
      0     0       32,7117    32       46,0000   ZeroHalf: 7      389   28,89%
      0     0       32,7529    32       46,0000      Cuts: 56      423   28,80%
      0     0       32,7893    32       46,0000      Cuts: 30      449   28,72%
      0     0       32,8104    32       46,0000      Cuts: 28      471   28,67%
      0     0       32,8268    32       46,0000  ZeroHalf: 13      487   28,64%
      0     0       32,8558    32       46,0000      Cuts: 22      510   28,57%
      0     0       32,8591    32       46,0000       Cuts: 9      520   28,57%
      0     0       32,8612    32       46,0000   ZeroHalf: 3      530   28,56%
      0     0       32,8619    32       46,0000   ZeroHalf: 3      535   28,56%
      0     0       32,8627    32       46,0000   ZeroHalf: 6      540   28,56%
      0     2       32,8627   159       46,0000       41,6667      540    9,42%
Elapsed time = 0,26 sec. (81,63 ticks, tree = 0,02 MB, solutions = 3)

Clique cuts applied:  10
Cover cuts applied:  64
Implied bound cuts applied:  5
Flow cuts applied:  3
Mixed integer rounding cuts applied:  24
Zero-half cuts applied:  27
Lift and project cuts applied:  1
Gomory fractional cuts applied:  5

Root node processing (before b&c):
  Real time             =    0,23 sec. (81,42 ticks)
Parallel b&c, 16 threads:
  Real time             =    0,27 sec. (21,50 ticks)
  Sync time (average)   =    0,21 sec.
  Wait time (average)   =    0,00 sec.
                          ------------
Total (root+branch&cut) =    0,50 sec. (102,92 ticks)
